(set-logic HORN)


(declare-fun |fail| ( ) Bool)
(declare-fun |inv| ( Int Int Int Int ) Bool)

(assert
  (forall ( (A Int) (B Int) (C Int) (D Int) ) 
    (=>
      (and
        (and (= D 0) (not (<= A B)) (= C 0))
      )
      (inv A B C D)
    )
  )
)
(assert
  (forall ( (A Int) (B Int) (C Int) (D Int) (E Int) (F Int) (G Int) (H Int) ) 
    (=>
      (and
        (inv B C A D)
        (and (= F (+ 2 C))
     (= G (ite (<= C B) A (+ 1 A)))
     (= H (ite (<= C B) (+ 1 D) D))
     (= E (+ 1 B)))
      )
      (inv E F G H)
    )
  )
)
(assert
  (forall ( (A Int) (B Int) (C Int) (D Int) ) 
    (=>
      (and
        (inv A B C D)
        (and (<= D 0) (not (<= C 1000)))
      )
      fail
    )
  )
)
(assert
  (forall ( (CHC_COMP_UNUSED Bool) ) 
    (=>
      (and
        fail
        true
      )
      false
    )
  )
)

(check-sat)
(exit)
